data;

param num_top:=3;

#nodes and edges of the physical network
param n := 7;

set E := (1,2) (1,7) (2,3) (2,6) (2,7) (3,4) (3,6) (4,5) (4,6) (5,6) (6,7) ;

#nodes and edges of the virtual networks
set Nl[1] := 1 2 6 3 ;
set Nl[2] := 7 1 5 3 ;
set Nl[3] := 4 6 3 7 ;

set El[1] := (1,2) (2,6) (3,6) (1,3) (1,6) (2,3) ;
set El[2] := (1,7) (1,5) (3,5) (3,7) (5,7) (1,3) ;
set El[3] := (4,6) (3,6) (3,7) (4,7) (3,4) (6,7) ;
